; benchmark generated from python API
(set-info :status unknown)
(declare-fun makespan () Int)
(declare-fun y_0 () Int)
(declare-fun x_0 () Int)
(declare-fun ud_1_4 () Bool)
(declare-fun y_1 () Int)
(declare-fun x_1 () Int)
(declare-fun lr_2_1 () Bool)
(declare-fun y_2 () Int)
(declare-fun x_2 () Int)
(declare-fun lr_3_1 () Bool)
(declare-fun y_3 () Int)
(declare-fun x_3 () Int)
(declare-fun y_4 () Int)
(declare-fun x_4 () Int)
(declare-fun ud_5_4 () Bool)
(declare-fun y_5 () Int)
(declare-fun x_5 () Int)
(declare-fun ud_6_4 () Bool)
(declare-fun y_6 () Int)
(declare-fun x_6 () Int)
(declare-fun ud_7_4 () Bool)
(declare-fun y_7 () Int)
(declare-fun x_7 () Int)
(declare-fun y_8 () Int)
(declare-fun x_8 () Int)
(declare-fun lr_1_2 () Bool)
(declare-fun ud_1_2 () Bool)
(declare-fun ud_2_1 () Bool)
(declare-fun lr_1_3 () Bool)
(declare-fun ud_1_3 () Bool)
(declare-fun ud_3_1 () Bool)
(declare-fun lr_1_4 () Bool)
(declare-fun lr_4_1 () Bool)
(declare-fun ud_4_1 () Bool)
(declare-fun lr_1_5 () Bool)
(declare-fun ud_1_5 () Bool)
(declare-fun lr_5_1 () Bool)
(declare-fun ud_5_1 () Bool)
(declare-fun lr_1_6 () Bool)
(declare-fun ud_1_6 () Bool)
(declare-fun lr_6_1 () Bool)
(declare-fun ud_6_1 () Bool)
(declare-fun lr_1_7 () Bool)
(declare-fun ud_1_7 () Bool)
(declare-fun lr_7_1 () Bool)
(declare-fun ud_7_1 () Bool)
(declare-fun lr_1_8 () Bool)
(declare-fun ud_1_8 () Bool)
(declare-fun lr_8_1 () Bool)
(declare-fun ud_8_1 () Bool)
(declare-fun lr_1_9 () Bool)
(declare-fun ud_1_9 () Bool)
(declare-fun lr_9_1 () Bool)
(declare-fun ud_9_1 () Bool)
(declare-fun lr_2_3 () Bool)
(declare-fun ud_2_3 () Bool)
(declare-fun lr_3_2 () Bool)
(declare-fun ud_3_2 () Bool)
(declare-fun lr_2_4 () Bool)
(declare-fun ud_2_4 () Bool)
(declare-fun lr_4_2 () Bool)
(declare-fun ud_4_2 () Bool)
(declare-fun lr_2_5 () Bool)
(declare-fun ud_2_5 () Bool)
(declare-fun lr_5_2 () Bool)
(declare-fun ud_5_2 () Bool)
(declare-fun lr_2_6 () Bool)
(declare-fun ud_2_6 () Bool)
(declare-fun lr_6_2 () Bool)
(declare-fun ud_6_2 () Bool)
(declare-fun lr_2_7 () Bool)
(declare-fun ud_2_7 () Bool)
(declare-fun lr_7_2 () Bool)
(declare-fun ud_7_2 () Bool)
(declare-fun lr_2_8 () Bool)
(declare-fun ud_2_8 () Bool)
(declare-fun lr_8_2 () Bool)
(declare-fun ud_8_2 () Bool)
(declare-fun lr_2_9 () Bool)
(declare-fun ud_2_9 () Bool)
(declare-fun lr_9_2 () Bool)
(declare-fun ud_9_2 () Bool)
(declare-fun lr_3_4 () Bool)
(declare-fun ud_3_4 () Bool)
(declare-fun lr_4_3 () Bool)
(declare-fun ud_4_3 () Bool)
(declare-fun lr_3_5 () Bool)
(declare-fun ud_3_5 () Bool)
(declare-fun lr_5_3 () Bool)
(declare-fun ud_5_3 () Bool)
(declare-fun lr_3_6 () Bool)
(declare-fun ud_3_6 () Bool)
(declare-fun lr_6_3 () Bool)
(declare-fun ud_6_3 () Bool)
(declare-fun lr_3_7 () Bool)
(declare-fun ud_3_7 () Bool)
(declare-fun lr_7_3 () Bool)
(declare-fun ud_7_3 () Bool)
(declare-fun lr_3_8 () Bool)
(declare-fun ud_3_8 () Bool)
(declare-fun lr_8_3 () Bool)
(declare-fun ud_8_3 () Bool)
(declare-fun lr_3_9 () Bool)
(declare-fun ud_3_9 () Bool)
(declare-fun lr_9_3 () Bool)
(declare-fun ud_9_3 () Bool)
(declare-fun lr_4_5 () Bool)
(declare-fun ud_4_5 () Bool)
(declare-fun lr_5_4 () Bool)
(declare-fun lr_4_6 () Bool)
(declare-fun ud_4_6 () Bool)
(declare-fun lr_6_4 () Bool)
(declare-fun lr_4_7 () Bool)
(declare-fun ud_4_7 () Bool)
(declare-fun lr_7_4 () Bool)
(declare-fun lr_4_8 () Bool)
(declare-fun ud_4_8 () Bool)
(declare-fun lr_8_4 () Bool)
(declare-fun ud_8_4 () Bool)
(declare-fun lr_4_9 () Bool)
(declare-fun ud_4_9 () Bool)
(declare-fun lr_9_4 () Bool)
(declare-fun ud_9_4 () Bool)
(declare-fun lr_5_6 () Bool)
(declare-fun ud_5_6 () Bool)
(declare-fun lr_6_5 () Bool)
(declare-fun ud_6_5 () Bool)
(declare-fun lr_5_7 () Bool)
(declare-fun ud_5_7 () Bool)
(declare-fun lr_7_5 () Bool)
(declare-fun ud_7_5 () Bool)
(declare-fun lr_5_8 () Bool)
(declare-fun ud_5_8 () Bool)
(declare-fun lr_8_5 () Bool)
(declare-fun ud_8_5 () Bool)
(declare-fun lr_5_9 () Bool)
(declare-fun ud_5_9 () Bool)
(declare-fun lr_9_5 () Bool)
(declare-fun ud_9_5 () Bool)
(declare-fun lr_6_7 () Bool)
(declare-fun ud_6_7 () Bool)
(declare-fun lr_7_6 () Bool)
(declare-fun ud_7_6 () Bool)
(declare-fun lr_6_8 () Bool)
(declare-fun ud_6_8 () Bool)
(declare-fun lr_8_6 () Bool)
(declare-fun ud_8_6 () Bool)
(declare-fun lr_6_9 () Bool)
(declare-fun ud_6_9 () Bool)
(declare-fun lr_9_6 () Bool)
(declare-fun ud_9_6 () Bool)
(declare-fun lr_7_8 () Bool)
(declare-fun ud_7_8 () Bool)
(declare-fun lr_8_7 () Bool)
(declare-fun ud_8_7 () Bool)
(declare-fun lr_7_9 () Bool)
(declare-fun ud_7_9 () Bool)
(declare-fun lr_9_7 () Bool)
(declare-fun ud_9_7 () Bool)
(declare-fun lr_8_9 () Bool)
(declare-fun ud_8_9 () Bool)
(declare-fun lr_9_8 () Bool)
(declare-fun ud_9_8 () Bool)
(assert
 (>= makespan 13))
(assert
 (<= makespan 16))
(assert
 (let ((?x13133 (+ y_0 6)))
 (<= ?x13133 makespan)))
(assert
 (let ((?x3487 (+ x_0 7)))
 (<= ?x3487 13)))
(assert
 (>= x_0 0))
(assert
 (<= y_0 10))
(assert
 (>= y_0 0))
(assert
 (<= x_0 3))
(assert
 (= ud_1_4 false))
(assert
 (let ((?x82025 (+ y_1 4)))
 (<= ?x82025 makespan)))
(assert
 (let ((?x82024 (+ x_1 4)))
 (<= ?x82024 13)))
(assert
 (>= x_1 0))
(assert
 (<= y_1 12))
(assert
 (>= y_1 0))
(assert
 (= lr_2_1 false))
(assert
 (let ((?x82071 (+ y_2 3)))
 (<= ?x82071 makespan)))
(assert
 (let ((?x82070 (+ x_2 4)))
 (<= ?x82070 13)))
(assert
 (>= x_2 0))
(assert
 (<= y_2 13))
(assert
 (>= y_2 0))
(assert
 (= lr_3_1 false))
(assert
 (let ((?x83050 (+ y_3 8)))
 (<= ?x83050 makespan)))
(assert
 (let ((?x10384 (+ x_3 3)))
 (<= ?x10384 13)))
(assert
 (>= x_3 0))
(assert
 (<= y_3 8))
(assert
 (>= y_3 0))
(assert
 (<= y_3 4))
(assert
 (let ((?x82133 (+ y_4 7)))
 (<= ?x82133 makespan)))
(assert
 (let ((?x11481 (+ x_4 3)))
 (<= ?x11481 13)))
(assert
 (>= x_4 0))
(assert
 (<= y_4 9))
(assert
 (>= y_4 0))
(assert
 (= ud_5_4 false))
(assert
 (let ((?x82170 (+ y_5 6)))
 (<= ?x82170 makespan)))
(assert
 (let ((?x6219 (+ x_5 3)))
 (<= ?x6219 13)))
(assert
 (>= x_5 0))
(assert
 (<= y_5 10))
(assert
 (>= y_5 0))
(assert
 (= ud_6_4 false))
(assert
 (let ((?x82209 (+ y_6 5)))
 (<= ?x82209 makespan)))
(assert
 (let ((?x83271 (+ x_6 3)))
 (<= ?x83271 13)))
(assert
 (>= x_6 0))
(assert
 (<= y_6 11))
(assert
 (>= y_6 0))
(assert
 (= ud_7_4 false))
(assert
 (let ((?x82246 (+ y_7 4)))
 (<= ?x82246 makespan)))
(assert
 (let ((?x82254 (+ x_7 3)))
 (<= ?x82254 13)))
(assert
 (>= x_7 0))
(assert
 (<= y_7 12))
(assert
 (>= y_7 0))
(assert
 (let ((?x13452 (+ y_8 3)))
 (<= ?x13452 makespan)))
(assert
 (let ((?x11317 (+ x_8 3)))
 (<= ?x11317 13)))
(assert
 (>= x_8 0))
(assert
 (<= y_8 13))
(assert
 (>= y_8 0))
(assert
 (= (<= (+ x_0 7) x_1) lr_1_2))
(assert
 (= (<= (+ y_0 6) y_1) ud_1_2))
(assert
 (= (<= (+ x_1 4) x_0) lr_2_1))
(assert
 (= (<= (+ y_1 4) y_0) ud_2_1))
(assert
 (or lr_1_2 lr_2_1 ud_1_2 ud_2_1))
(assert
 (let (($x1620 (< makespan 10)))
 (=> $x1620 (= ud_1_2 false))))
(assert
 (let (($x1620 (< makespan 10)))
 (=> $x1620 (= ud_2_1 false))))
(assert
 (= (<= (+ x_0 7) x_2) lr_1_3))
(assert
 (= (<= (+ y_0 6) y_2) ud_1_3))
(assert
 (= (<= (+ x_2 4) x_0) lr_3_1))
(assert
 (= (<= (+ y_2 3) y_0) ud_3_1))
(assert
 (or lr_1_3 lr_3_1 ud_1_3 ud_3_1))
(assert
 (let (($x344 (< makespan 9)))
 (=> $x344 (= ud_1_3 false))))
(assert
 (let (($x344 (< makespan 9)))
 (=> $x344 (= ud_3_1 false))))
(assert
 (= (<= (+ x_0 7) x_3) lr_1_4))
(assert
 (= (<= (+ y_0 6) y_3) ud_1_4))
(assert
 (= (<= (+ x_3 3) x_0) lr_4_1))
(assert
 (= (<= (+ y_3 8) y_0) ud_4_1))
(assert
 (or lr_1_4 lr_4_1 ud_1_4 ud_4_1))
(assert
 (let (($x11343 (= ud_1_4 false)))
 (let (($x82611 (< makespan 14)))
 (=> $x82611 $x11343))))
(assert
 (let (($x82611 (< makespan 14)))
 (=> $x82611 (= ud_4_1 false))))
(assert
 (= (<= (+ x_0 7) x_4) lr_1_5))
(assert
 (= (<= (+ y_0 6) y_4) ud_1_5))
(assert
 (= (<= (+ x_4 3) x_0) lr_5_1))
(assert
 (= (<= (+ y_4 7) y_0) ud_5_1))
(assert
 (or lr_1_5 lr_5_1 ud_1_5 ud_5_1))
(assert
 (let (($x82727 (< makespan 13)))
 (=> $x82727 (= ud_1_5 false))))
(assert
 (let (($x82727 (< makespan 13)))
 (=> $x82727 (= ud_5_1 false))))
(assert
 (= (<= (+ x_0 7) x_5) lr_1_6))
(assert
 (= (<= (+ y_0 6) y_5) ud_1_6))
(assert
 (= (<= (+ x_5 3) x_0) lr_6_1))
(assert
 (= (<= (+ y_5 6) y_0) ud_6_1))
(assert
 (or lr_1_6 lr_6_1 ud_1_6 ud_6_1))
(assert
 (let (($x82830 (< makespan 12)))
 (=> $x82830 (= ud_1_6 false))))
(assert
 (let (($x82830 (< makespan 12)))
 (=> $x82830 (= ud_6_1 false))))
(assert
 (= (<= (+ x_0 7) x_6) lr_1_7))
(assert
 (= (<= (+ y_0 6) y_6) ud_1_7))
(assert
 (= (<= (+ x_6 3) x_0) lr_7_1))
(assert
 (= (<= (+ y_6 5) y_0) ud_7_1))
(assert
 (or lr_1_7 lr_7_1 ud_1_7 ud_7_1))
(assert
 (let (($x82965 (< makespan 11)))
 (=> $x82965 (= ud_1_7 false))))
(assert
 (let (($x82965 (< makespan 11)))
 (=> $x82965 (= ud_7_1 false))))
(assert
 (= (<= (+ x_0 7) x_7) lr_1_8))
(assert
 (= (<= (+ y_0 6) y_7) ud_1_8))
(assert
 (= (<= (+ x_7 3) x_0) lr_8_1))
(assert
 (= (<= (+ y_7 4) y_0) ud_8_1))
(assert
 (or lr_1_8 lr_8_1 ud_1_8 ud_8_1))
(assert
 (let (($x1620 (< makespan 10)))
 (=> $x1620 (= ud_1_8 false))))
(assert
 (let (($x1620 (< makespan 10)))
 (=> $x1620 (= ud_8_1 false))))
(assert
 (= (<= (+ x_0 7) x_8) lr_1_9))
(assert
 (= (<= (+ y_0 6) y_8) ud_1_9))
(assert
 (= (<= (+ x_8 3) x_0) lr_9_1))
(assert
 (= (<= (+ y_8 3) y_0) ud_9_1))
(assert
 (or lr_1_9 lr_9_1 ud_1_9 ud_9_1))
(assert
 (let (($x344 (< makespan 9)))
 (=> $x344 (= ud_1_9 false))))
(assert
 (let (($x344 (< makespan 9)))
 (=> $x344 (= ud_9_1 false))))
(assert
 (= (<= (+ x_1 4) x_2) lr_2_3))
(assert
 (= (<= (+ y_1 4) y_2) ud_2_3))
(assert
 (= (<= (+ x_2 4) x_1) lr_3_2))
(assert
 (= (<= (+ y_2 3) y_1) ud_3_2))
(assert
 (or lr_2_3 lr_3_2 ud_2_3 ud_3_2))
(assert
 (let (($x83304 (< makespan 7)))
 (=> $x83304 (= ud_2_3 false))))
(assert
 (let (($x83304 (< makespan 7)))
 (=> $x83304 (= ud_3_2 false))))
(assert
 (= (<= (+ x_1 4) x_3) lr_2_4))
(assert
 (= (<= (+ y_1 4) y_3) ud_2_4))
(assert
 (= (<= (+ x_3 3) x_1) lr_4_2))
(assert
 (= (<= (+ y_3 8) y_1) ud_4_2))
(assert
 (or lr_2_4 lr_4_2 ud_2_4 ud_4_2))
(assert
 (let (($x82830 (< makespan 12)))
 (=> $x82830 (= ud_2_4 false))))
(assert
 (let (($x82830 (< makespan 12)))
 (=> $x82830 (= ud_4_2 false))))
(assert
 (= (<= (+ x_1 4) x_4) lr_2_5))
(assert
 (= (<= (+ y_1 4) y_4) ud_2_5))
(assert
 (= (<= (+ x_4 3) x_1) lr_5_2))
(assert
 (= (<= (+ y_4 7) y_1) ud_5_2))
(assert
 (or lr_2_5 lr_5_2 ud_2_5 ud_5_2))
(assert
 (let (($x82965 (< makespan 11)))
 (=> $x82965 (= ud_2_5 false))))
(assert
 (let (($x82965 (< makespan 11)))
 (=> $x82965 (= ud_5_2 false))))
(assert
 (= (<= (+ x_1 4) x_5) lr_2_6))
(assert
 (= (<= (+ y_1 4) y_5) ud_2_6))
(assert
 (= (<= (+ x_5 3) x_1) lr_6_2))
(assert
 (= (<= (+ y_5 6) y_1) ud_6_2))
(assert
 (or lr_2_6 lr_6_2 ud_2_6 ud_6_2))
(assert
 (let (($x1620 (< makespan 10)))
 (=> $x1620 (= ud_2_6 false))))
(assert
 (let (($x1620 (< makespan 10)))
 (=> $x1620 (= ud_6_2 false))))
(assert
 (= (<= (+ x_1 4) x_6) lr_2_7))
(assert
 (= (<= (+ y_1 4) y_6) ud_2_7))
(assert
 (= (<= (+ x_6 3) x_1) lr_7_2))
(assert
 (= (<= (+ y_6 5) y_1) ud_7_2))
(assert
 (or lr_2_7 lr_7_2 ud_2_7 ud_7_2))
(assert
 (let (($x344 (< makespan 9)))
 (=> $x344 (= ud_2_7 false))))
(assert
 (let (($x344 (< makespan 9)))
 (=> $x344 (= ud_7_2 false))))
(assert
 (= (<= (+ x_1 4) x_7) lr_2_8))
(assert
 (= (<= (+ y_1 4) y_7) ud_2_8))
(assert
 (= (<= (+ x_7 3) x_1) lr_8_2))
(assert
 (= (<= (+ y_7 4) y_1) ud_8_2))
(assert
 (or lr_2_8 lr_8_2 ud_2_8 ud_8_2))
(assert
 (let (($x82174 (< makespan 8)))
 (=> $x82174 (= ud_2_8 false))))
(assert
 (let (($x82174 (< makespan 8)))
 (=> $x82174 (= ud_8_2 false))))
(assert
 (= (<= (+ x_1 4) x_8) lr_2_9))
(assert
 (= (<= (+ y_1 4) y_8) ud_2_9))
(assert
 (= (<= (+ x_8 3) x_1) lr_9_2))
(assert
 (= (<= (+ y_8 3) y_1) ud_9_2))
(assert
 (or lr_2_9 lr_9_2 ud_2_9 ud_9_2))
(assert
 (let (($x83304 (< makespan 7)))
 (=> $x83304 (= ud_2_9 false))))
(assert
 (let (($x83304 (< makespan 7)))
 (=> $x83304 (= ud_9_2 false))))
(assert
 (= (<= (+ x_2 4) x_3) lr_3_4))
(assert
 (= (<= (+ y_2 3) y_3) ud_3_4))
(assert
 (= (<= (+ x_3 3) x_2) lr_4_3))
(assert
 (= (<= (+ y_3 8) y_2) ud_4_3))
(assert
 (or lr_3_4 lr_4_3 ud_3_4 ud_4_3))
(assert
 (let (($x82965 (< makespan 11)))
 (=> $x82965 (= ud_3_4 false))))
(assert
 (let (($x82965 (< makespan 11)))
 (=> $x82965 (= ud_4_3 false))))
(assert
 (= (<= (+ x_2 4) x_4) lr_3_5))
(assert
 (= (<= (+ y_2 3) y_4) ud_3_5))
(assert
 (= (<= (+ x_4 3) x_2) lr_5_3))
(assert
 (= (<= (+ y_4 7) y_2) ud_5_3))
(assert
 (or lr_3_5 lr_5_3 ud_3_5 ud_5_3))
(assert
 (let (($x1620 (< makespan 10)))
 (=> $x1620 (= ud_3_5 false))))
(assert
 (let (($x1620 (< makespan 10)))
 (=> $x1620 (= ud_5_3 false))))
(assert
 (= (<= (+ x_2 4) x_5) lr_3_6))
(assert
 (= (<= (+ y_2 3) y_5) ud_3_6))
(assert
 (= (<= (+ x_5 3) x_2) lr_6_3))
(assert
 (= (<= (+ y_5 6) y_2) ud_6_3))
(assert
 (or lr_3_6 lr_6_3 ud_3_6 ud_6_3))
(assert
 (let (($x344 (< makespan 9)))
 (=> $x344 (= ud_3_6 false))))
(assert
 (let (($x344 (< makespan 9)))
 (=> $x344 (= ud_6_3 false))))
(assert
 (= (<= (+ x_2 4) x_6) lr_3_7))
(assert
 (= (<= (+ y_2 3) y_6) ud_3_7))
(assert
 (= (<= (+ x_6 3) x_2) lr_7_3))
(assert
 (= (<= (+ y_6 5) y_2) ud_7_3))
(assert
 (or lr_3_7 lr_7_3 ud_3_7 ud_7_3))
(assert
 (let (($x82174 (< makespan 8)))
 (=> $x82174 (= ud_3_7 false))))
(assert
 (let (($x82174 (< makespan 8)))
 (=> $x82174 (= ud_7_3 false))))
(assert
 (= (<= (+ x_2 4) x_7) lr_3_8))
(assert
 (= (<= (+ y_2 3) y_7) ud_3_8))
(assert
 (= (<= (+ x_7 3) x_2) lr_8_3))
(assert
 (= (<= (+ y_7 4) y_2) ud_8_3))
(assert
 (or lr_3_8 lr_8_3 ud_3_8 ud_8_3))
(assert
 (let (($x83304 (< makespan 7)))
 (=> $x83304 (= ud_3_8 false))))
(assert
 (let (($x83304 (< makespan 7)))
 (=> $x83304 (= ud_8_3 false))))
(assert
 (= (<= (+ x_2 4) x_8) lr_3_9))
(assert
 (= (<= (+ y_2 3) y_8) ud_3_9))
(assert
 (= (<= (+ x_8 3) x_2) lr_9_3))
(assert
 (= (<= (+ y_8 3) y_2) ud_9_3))
(assert
 (or lr_3_9 lr_9_3 ud_3_9 ud_9_3))
(assert
 (let (($x1092 (< makespan 6)))
 (=> $x1092 (= ud_3_9 false))))
(assert
 (let (($x1092 (< makespan 6)))
 (=> $x1092 (= ud_9_3 false))))
(assert
 (= (<= (+ x_3 3) x_4) lr_4_5))
(assert
 (= (<= (+ y_3 8) y_4) ud_4_5))
(assert
 (= (<= (+ x_4 3) x_3) lr_5_4))
(assert
 (= (<= (+ y_4 7) y_3) ud_5_4))
(assert
 (or lr_4_5 lr_5_4 ud_4_5 ud_5_4))
(assert
 (let (($x82866 (< makespan 15)))
 (=> $x82866 (= ud_4_5 false))))
(assert
 (let (($x1885 (= ud_5_4 false)))
 (let (($x82866 (< makespan 15)))
 (=> $x82866 $x1885))))
(assert
 (= (<= (+ x_3 3) x_5) lr_4_6))
(assert
 (= (<= (+ y_3 8) y_5) ud_4_6))
(assert
 (= (<= (+ x_5 3) x_3) lr_6_4))
(assert
 (= (<= (+ y_5 6) y_3) ud_6_4))
(assert
 (or lr_4_6 lr_6_4 ud_4_6 ud_6_4))
(assert
 (let (($x82611 (< makespan 14)))
 (=> $x82611 (= ud_4_6 false))))
(assert
 (let (($x1390 (= ud_6_4 false)))
 (let (($x82611 (< makespan 14)))
 (=> $x82611 $x1390))))
(assert
 (= (<= (+ x_3 3) x_6) lr_4_7))
(assert
 (= (<= (+ y_3 8) y_6) ud_4_7))
(assert
 (= (<= (+ x_6 3) x_3) lr_7_4))
(assert
 (= (<= (+ y_6 5) y_3) ud_7_4))
(assert
 (or lr_4_7 lr_7_4 ud_4_7 ud_7_4))
(assert
 (let (($x82727 (< makespan 13)))
 (=> $x82727 (= ud_4_7 false))))
(assert
 (let (($x82236 (= ud_7_4 false)))
 (let (($x82727 (< makespan 13)))
 (=> $x82727 $x82236))))
(assert
 (= (<= (+ x_3 3) x_7) lr_4_8))
(assert
 (= (<= (+ y_3 8) y_7) ud_4_8))
(assert
 (= (<= (+ x_7 3) x_3) lr_8_4))
(assert
 (= (<= (+ y_7 4) y_3) ud_8_4))
(assert
 (or lr_4_8 lr_8_4 ud_4_8 ud_8_4))
(assert
 (let (($x82830 (< makespan 12)))
 (=> $x82830 (= ud_4_8 false))))
(assert
 (let (($x82830 (< makespan 12)))
 (=> $x82830 (= ud_8_4 false))))
(assert
 (= (<= (+ x_3 3) x_8) lr_4_9))
(assert
 (= (<= (+ y_3 8) y_8) ud_4_9))
(assert
 (= (<= (+ x_8 3) x_3) lr_9_4))
(assert
 (= (<= (+ y_8 3) y_3) ud_9_4))
(assert
 (or lr_4_9 lr_9_4 ud_4_9 ud_9_4))
(assert
 (let (($x82965 (< makespan 11)))
 (=> $x82965 (= ud_4_9 false))))
(assert
 (let (($x82965 (< makespan 11)))
 (=> $x82965 (= ud_9_4 false))))
(assert
 (= (<= (+ x_4 3) x_5) lr_5_6))
(assert
 (= (<= (+ y_4 7) y_5) ud_5_6))
(assert
 (= (<= (+ x_5 3) x_4) lr_6_5))
(assert
 (= (<= (+ y_5 6) y_4) ud_6_5))
(assert
 (or lr_5_6 lr_6_5 ud_5_6 ud_6_5))
(assert
 (let (($x82727 (< makespan 13)))
 (=> $x82727 (= ud_5_6 false))))
(assert
 (let (($x82727 (< makespan 13)))
 (=> $x82727 (= ud_6_5 false))))
(assert
 (= (<= (+ x_4 3) x_6) lr_5_7))
(assert
 (= (<= (+ y_4 7) y_6) ud_5_7))
(assert
 (= (<= (+ x_6 3) x_4) lr_7_5))
(assert
 (= (<= (+ y_6 5) y_4) ud_7_5))
(assert
 (or lr_5_7 lr_7_5 ud_5_7 ud_7_5))
(assert
 (let (($x82830 (< makespan 12)))
 (=> $x82830 (= ud_5_7 false))))
(assert
 (let (($x82830 (< makespan 12)))
 (=> $x82830 (= ud_7_5 false))))
(assert
 (= (<= (+ x_4 3) x_7) lr_5_8))
(assert
 (= (<= (+ y_4 7) y_7) ud_5_8))
(assert
 (= (<= (+ x_7 3) x_4) lr_8_5))
(assert
 (= (<= (+ y_7 4) y_4) ud_8_5))
(assert
 (or lr_5_8 lr_8_5 ud_5_8 ud_8_5))
(assert
 (let (($x82965 (< makespan 11)))
 (=> $x82965 (= ud_5_8 false))))
(assert
 (let (($x82965 (< makespan 11)))
 (=> $x82965 (= ud_8_5 false))))
(assert
 (= (<= (+ x_4 3) x_8) lr_5_9))
(assert
 (= (<= (+ y_4 7) y_8) ud_5_9))
(assert
 (= (<= (+ x_8 3) x_4) lr_9_5))
(assert
 (= (<= (+ y_8 3) y_4) ud_9_5))
(assert
 (or lr_5_9 lr_9_5 ud_5_9 ud_9_5))
(assert
 (let (($x1620 (< makespan 10)))
 (=> $x1620 (= ud_5_9 false))))
(assert
 (let (($x1620 (< makespan 10)))
 (=> $x1620 (= ud_9_5 false))))
(assert
 (= (<= (+ x_5 3) x_6) lr_6_7))
(assert
 (= (<= (+ y_5 6) y_6) ud_6_7))
(assert
 (= (<= (+ x_6 3) x_5) lr_7_6))
(assert
 (= (<= (+ y_6 5) y_5) ud_7_6))
(assert
 (or lr_6_7 lr_7_6 ud_6_7 ud_7_6))
(assert
 (let (($x82965 (< makespan 11)))
 (=> $x82965 (= ud_6_7 false))))
(assert
 (let (($x82965 (< makespan 11)))
 (=> $x82965 (= ud_7_6 false))))
(assert
 (= (<= (+ x_5 3) x_7) lr_6_8))
(assert
 (= (<= (+ y_5 6) y_7) ud_6_8))
(assert
 (= (<= (+ x_7 3) x_5) lr_8_6))
(assert
 (= (<= (+ y_7 4) y_5) ud_8_6))
(assert
 (or lr_6_8 lr_8_6 ud_6_8 ud_8_6))
(assert
 (let (($x1620 (< makespan 10)))
 (=> $x1620 (= ud_6_8 false))))
(assert
 (let (($x1620 (< makespan 10)))
 (=> $x1620 (= ud_8_6 false))))
(assert
 (= (<= (+ x_5 3) x_8) lr_6_9))
(assert
 (= (<= (+ y_5 6) y_8) ud_6_9))
(assert
 (= (<= (+ x_8 3) x_5) lr_9_6))
(assert
 (= (<= (+ y_8 3) y_5) ud_9_6))
(assert
 (or lr_6_9 lr_9_6 ud_6_9 ud_9_6))
(assert
 (let (($x344 (< makespan 9)))
 (=> $x344 (= ud_6_9 false))))
(assert
 (let (($x344 (< makespan 9)))
 (=> $x344 (= ud_9_6 false))))
(assert
 (= (<= (+ x_6 3) x_7) lr_7_8))
(assert
 (= (<= (+ y_6 5) y_7) ud_7_8))
(assert
 (= (<= (+ x_7 3) x_6) lr_8_7))
(assert
 (= (<= (+ y_7 4) y_6) ud_8_7))
(assert
 (or lr_7_8 lr_8_7 ud_7_8 ud_8_7))
(assert
 (let (($x344 (< makespan 9)))
 (=> $x344 (= ud_7_8 false))))
(assert
 (let (($x344 (< makespan 9)))
 (=> $x344 (= ud_8_7 false))))
(assert
 (= (<= (+ x_6 3) x_8) lr_7_9))
(assert
 (= (<= (+ y_6 5) y_8) ud_7_9))
(assert
 (= (<= (+ x_8 3) x_6) lr_9_7))
(assert
 (= (<= (+ y_8 3) y_6) ud_9_7))
(assert
 (or lr_7_9 lr_9_7 ud_7_9 ud_9_7))
(assert
 (let (($x82174 (< makespan 8)))
 (=> $x82174 (= ud_7_9 false))))
(assert
 (let (($x82174 (< makespan 8)))
 (=> $x82174 (= ud_9_7 false))))
(assert
 (= (<= (+ x_7 3) x_8) lr_8_9))
(assert
 (= (<= (+ y_7 4) y_8) ud_8_9))
(assert
 (= (<= (+ x_8 3) x_7) lr_9_8))
(assert
 (= (<= (+ y_8 3) y_7) ud_9_8))
(assert
 (or lr_8_9 lr_9_8 ud_8_9 ud_9_8))
(assert
 (let (($x83304 (< makespan 7)))
 (=> $x83304 (= ud_8_9 false))))
(assert
 (let (($x83304 (< makespan 7)))
 (=> $x83304 (= ud_9_8 false))))
(check-sat)
